units lj
atom_style atomic
boundary p p p
timestep 0.001

read_data test.atoms

mass 1 1.0

pair_style lj/cut 3.0
pair_coeff 1 1 1.0 1.0 3.0

fix 1 all nve

thermo 100
run 1000
